************************************************************************
file with basedata            : md372_.bas
initial value random generator: 18366
************************************************************************
projects                      :  1
jobs (incl. supersource/sink ):  22
horizon                       :  151
RESOURCES
  - renewable                 :  2   R
  - nonrenewable              :  2   N
  - doubly constrained        :  0   D
************************************************************************
PROJECT INFORMATION:
pronr.  #jobs rel.date duedate tardcost  MPM-Time
    1     20      0       19        8       19
************************************************************************
PRECEDENCE RELATIONS:
jobnr.    #modes  #successors   successors
   1        1          3           2   3   4
   2        3          2           5   7
   3        3          3           5  16  17
   4        3          3           6  12  14
   5        3          3          11  13  20
   6        3          3           7  15  17
   7        3          3           8   9  21
   8        3          2          10  16
   9        3          2          10  18
  10        3          1          20
  11        3          2          12  14
  12        3          1          19
  13        3          1          14
  14        3          2          18  21
  15        3          1          16
  16        3          1          18
  17        3          3          19  20  21
  18        3          1          19
  19        3          1          22
  20        3          1          22
  21        3          1          22
  22        1          0        
************************************************************************
REQUESTS/DURATIONS:
jobnr. mode duration  R 1  R 2  N 1  N 2
------------------------------------------------------------------------
  1      1     0       0    0    0    0
  2      1     1       4    0   10   10
         2     6       0    7    9    8
         3    10       0    1    8    7
  3      1     6       0    2   10    6
         2     7       8    0    6    5
         3    10       6    0    2    4
  4      1     4       9    0    5    5
         2     4       0    4    5    5
         3     5       0    4    5    4
  5      1     3       6    0    6    9
         2     6       6    0    6    8
         3     7       6    0    3    7
  6      1     4       0    7    7    5
         2     6       0    5    7    4
         3     8       4    0    2    2
  7      1     1       0    8    7    5
         2     3      10    0    5    5
         3     9       9    0    3    5
  8      1     3       0    2   10    9
         2     6       6    0    7    9
         3     8       4    0    6    8
  9      1     1       9    0    8    3
         2     3       2    0    7    3
         3     4       0    7    7    2
 10      1     2       8    0    7    8
         2     6       8    0    7    6
         3     9       5    0    6    3
 11      1     2       0    5    9    9
         2     8       0    2    8    8
         3    10       4    0    6    8
 12      1     2       0    7    9    9
         2     6       0    5    8    5
         3     6       8    0    7    7
 13      1     1       0    9    8    5
         2    10       0    3    8    4
         3    10       4    0    8    4
 14      1     1       0    3    5    5
         2     4       6    0    3    4
         3     4       6    0    1    5
 15      1     1       7    0    4   10
         2     4       6    0    3    9
         3     9       3    0    2    9
 16      1     4       6    0    8    9
         2     4       0    5    8    7
         3     7       0    5    6    4
 17      1     5       7    0    7    7
         2     5       0    3    7    9
         3     7       0    3    6    5
 18      1     2       6    0    3    5
         2     2       0    8    3    6
         3     9       0    7    3    5
 19      1     1       7    0    7    5
         2     1       0    4    7    6
         3     9       0    2    5    5
 20      1     5       2    0    2    8
         2     6       0    8    2    6
         3     7       0    5    2    6
 21      1     2       0    2    4    7
         2     2      10    0    4    7
         3     3       0    2    4    5
 22      1     0       0    0    0    0
************************************************************************
RESOURCEAVAILABILITIES:
  R 1  R 2  N 1  N 2
   32   26  125  133
************************************************************************
MAXIMAL LAGS:
from  to  type  delay
    1   12   ES      0
    1    2   ES      0
    2   12   ES      0
    1    3   ES      0
    3   12   ES      0
    1    4   ES      0
    4   12   ES      0
    1    5   ES      0
    5   12   ES      0
    1    6   ES      0
    6   12   ES      0
    1    7   ES      0
    7   12   ES      0
    1    8   ES      0
    8   12   ES      0
    1    9   ES      0
    9   12   ES      0
    1   10   ES      0
   10   12   ES      0
    1   11   ES      0
   11   12   ES      0
    1   12   ES      0
    2    5   SS      2
    2    5   SE    -12
    2    5   ES     -7
    2    5   EE      3
    2    7   SS      4
    2    7   SE     -2
    2    7   ES     -5
    2    7   EE      2
    3    5   SS      6
    3    5   SE      5
    3    5   ES     12
    3    5   EE     -8
    3   16   SS     -9
    3   16   SE     -3
    3   16   ES     11
    3   16   EE      6
    3   17   SS     -7
    3   17   SE     -3
    3   17   ES    -10
    3   17   EE     -5
    4    6   SS      3
    4    6   SE     -9
    4    6   ES      3
    4    6   EE     -5
    4   14   SS    -12
    4   14   SE      1
    4   14   ES     10
    4   14   EE     -6
    5   11   SS      6
    5   11   SE    -11
    5   11   ES      4
    5   11   EE     -1
    5   13   SS      4
    5   13   SE     -6
    5   13   ES    -11
    5   13   EE      1
    5   20   SS      5
    5   20   SE     -4
    5   20   ES      9
    5   20   EE      4
    6    7   SS     -6
    6    7   SE      1
    6    7   ES     12
    6    7   EE     12
    6   15   SS      4
    6   15   SE     -9
    6   15   ES      1
    6   15   EE      2
    6   17   SS     -7
    6   17   SE     -6
    6   17   ES      5
    6   17   EE      0
    7    8   SS      1
    7    8   SE     -2
    7    8   ES      9
    7    8   EE      1
    7    9   SS    -11
    7    9   SE      0
    7    9   ES      3
    7    9   EE      3
    7   21   SS     -1
    7   21   SE     -1
    7   21   ES      6
    7   21   EE     -1
    8   10   SS      2
    8   10   SE     -5
    8   10   ES     11
    8   10   EE     12
    8   16   SS     -2
    8   16   SE     -3
    8   16   ES     -9
    8   16   EE    -12
    9   10   SS     -2
    9   10   SE     11
    9   10   ES     12
    9   10   EE      8
    9   18   SS      9
    9   18   SE      2
    9   18   ES      3
    9   18   EE      9
   10   20   SS     -8
   10   20   SE     -1
   10   20   ES    -12
   10   20   EE     -3
   11   14   SS    -11
   11   14   SE     -7
   11   14   ES     -2
   11   14   EE     10
   12   19   SS     11
   12   19   SE      5
   12   19   ES      8
   12   19   EE      7
   13   14   SS     11
   13   14   SE      4
   13   14   ES      5
   13   14   EE    -10
   14   18   SS    -12
   14   18   SE      8
   14   18   ES      5
   14   18   EE     -2
   14   21   SS     -2
   14   21   SE      4
   14   21   ES      2
   14   21   EE     -8
   15   16   SS     -6
   15   16   SE     -2
   15   16   ES      3
   15   16   EE      4
   16   18   SS     -3
   16   18   SE     12
   16   18   ES     -1
   16   18   EE      3
   17   19   SS      8
   17   19   SE     -8
   17   19   ES    -11
   17   19   EE      4
   17   20   SS    -12
   17   20   SE     -8
   17   20   ES     -3
   17   20   EE     -9
   17   21   SS    -12
   17   21   SE     -3
   17   21   ES    -10
   17   21   EE     -1
   18   19   SS    -11
   18   19   SE      2
   18   19   ES     11
   18   19   EE     12
   19   22   SS     -3
   19   22   SE      6
   19   22   ES     -5
   19   22   EE     -9
   20   22   SS      0
   20   22   SE      0
   20   22   ES    -12
   20   22   EE      4
   21   22   SS      9
   21   22   SE     -9
   21   22   ES      1
   21   22   EE     12
************************************************************************
